07888.36
17993.73
27943.84
37793.81
48178.96
57891.91
67788.39
77988.47
87878.47
98200.72
107925.43
117507.88
128096.97
137852.8
147892.01
157757.65
167921.75
178168.25
188045.83
197677.08
207436.78
217659.31
227868.82
237937.16
247634.98
258215.6
268080.72
277878.27
287823.77
297799.55
307825.19
317658.57
327977.96
337533.18
347888.02
357740.21
367783.29
378224.42
387963.54
397560.99
407854.37
418096.06
427890.48
437983.97
447925.14
457535.38
467701.45
478032.84
488124.28
498216.18
